Using license file /Users/muratilter/gurobi.lic
Set parameter LogFile to value best-lin-model1-future-4.log
Academic license - for non-commercial use only
Read LP format model from file new_best_lin_future_4.lp
Reading time = 0.05 seconds
: 14853 rows, 896 columns, 107840 nonzeros
Gurobi Optimizer version 9.0.2 build v9.0.2rc0 (mac64)
Optimize a model with 14853 rows, 896 columns and 107840 nonzeros
Model fingerprint: 0x72f1a00b
Variable types: 0 continuous, 896 integer (896 binary)
Coefficient statistics:
  Matrix range     [1e+00, 2e+01]
  Objective range  [2e+00, 4e+00]
  Bounds range     [1e+00, 1e+00]
  RHS range        [1e+00, 2e+01]
Presolve removed 285 rows and 224 columns
Presolve time: 0.25s
Presolved: 14568 rows, 672 columns, 106928 nonzeros
Variable types: 0 continuous, 672 integer (672 binary)

Root relaxation: objective 3.570667e+01, 9344 iterations, 0.48 seconds

    Nodes    |    Current Node    |     Objective Bounds      |     Work
 Expl Unexpl |  Obj  Depth IntInf | Incumbent    BestBd   Gap | It/Node Time

     0     0   35.70667    0  467          -   35.70667      -     -    1s
H    0     0                      66.0000000   35.70667  45.9%     -    1s
H    0     0                      58.0000000   35.70667  38.4%     -    1s
     0     0   35.81325    0  494   58.00000   35.81325  38.3%     -    2s
H    0     0                      52.0000000   35.81325  31.1%     -    2s
     0     0   35.85584    0  478   52.00000   35.85584  31.0%     -    2s
     0     0   36.06854    0  408   52.00000   36.06854  30.6%     -    3s
     0     0   36.09337    0  413   52.00000   36.09337  30.6%     -    3s
     0     0   36.49082    0  455   52.00000   36.49082  29.8%     -    4s
     0     0   36.60289    0  447   52.00000   36.60289  29.6%     -    4s
     0     0   37.39009    0  448   52.00000   37.39009  28.1%     -    5s
     0     0   37.53576    0  454   52.00000   37.53576  27.8%     -    5s
     0     0   37.55592    0  446   52.00000   37.55592  27.8%     -    5s
     0     0   37.56024    0  469   52.00000   37.56024  27.8%     -    5s
     0     0   37.56098    0  447   52.00000   37.56098  27.8%     -    5s
     0     0   37.56110    0  412   52.00000   37.56110  27.8%     -    5s
     0     0   37.70546    0  467   52.00000   37.70546  27.5%     -    6s
     0     0   37.80146    0  435   52.00000   37.80146  27.3%     -    6s
     0     0   37.80902    0  441   52.00000   37.80902  27.3%     -    6s
     0     0   37.80908    0  442   52.00000   37.80908  27.3%     -    6s
     0     0   37.86786    0  449   52.00000   37.86786  27.2%     -    7s
     0     0   37.87684    0  469   52.00000   37.87684  27.2%     -    7s
     0     0   37.87811    0  471   52.00000   37.87811  27.2%     -    7s
     0     0   37.87830    0  471   52.00000   37.87830  27.2%     -    7s
     0     0   38.04983    0  468   52.00000   38.04983  26.8%     -    8s
     0     0   38.07091    0  473   52.00000   38.07091  26.8%     -    8s
     0     0   38.07414    0  493   52.00000   38.07414  26.8%     -    8s
     0     0   38.07464    0  503   52.00000   38.07464  26.8%     -    8s
     0     0   38.07484    0  510   52.00000   38.07484  26.8%     -    8s
     0     0   38.45184    0  446   52.00000   38.45184  26.1%     -    9s
     0     0   38.47532    0  511   52.00000   38.47532  26.0%     -    9s
     0     0   38.47785    0  502   52.00000   38.47785  26.0%     -    9s
     0     0   38.47918    0  504   52.00000   38.47918  26.0%     -    9s
     0     0   38.47949    0  494   52.00000   38.47949  26.0%     -    9s
     0     0   39.36638    0  468   52.00000   39.36638  24.3%     -   10s
     0     0   39.40074    0  480   52.00000   39.40074  24.2%     -   10s
     0     0   39.45032    0  455   52.00000   39.45032  24.1%     -   10s
     0     0   39.45034    0  458   52.00000   39.45034  24.1%     -   10s
     0     0   40.30559    0  451   52.00000   40.30559  22.5%     -   11s
     0     0   40.30758    0  454   52.00000   40.30758  22.5%     -   11s
     0     0   40.30777    0  445   52.00000   40.30777  22.5%     -   11s
     0     0   40.97752    0  459   52.00000   40.97752  21.2%     -   11s
     0     0   40.97921    0  462   52.00000   40.97921  21.2%     -   11s
     0     0   40.97936    0  449   52.00000   40.97936  21.2%     -   11s
     0     0   40.98363    0  472   52.00000   40.98363  21.2%     -   12s
     0     0   41.04253    0  465   52.00000   41.04253  21.1%     -   12s
     0     0   41.04257    0  461   52.00000   41.04257  21.1%     -   12s
     0     0   41.31742    0  458   52.00000   41.31742  20.5%     -   12s
     0     0   41.31742    0  458   52.00000   41.31742  20.5%     -   12s
     0     0   41.31742    0  454   52.00000   41.31742  20.5%     -   13s
     0     0   41.31742    0  456   52.00000   41.31742  20.5%     -   13s
     0     0   41.31742    0  456   52.00000   41.31742  20.5%     -   13s
     0     0   41.31742    0  456   52.00000   41.31742  20.5%     -   13s
     0     0   41.31742    0  458   52.00000   41.31742  20.5%     -   14s
     0     0   41.31742    0  458   52.00000   41.31742  20.5%     -   14s
     0     2   41.31742    0  458   52.00000   41.31742  20.5%     -   14s
     7    12   41.31742    3  456   52.00000   41.31742  20.5%   218   15s
   115   115   46.17230   24  352   52.00000   41.31742  20.5%   307   20s
   225   195   46.11125   19  363   52.00000   41.31742  20.5%   302   25s
H  281   214                      50.0000000   41.31742  17.4%   281   28s
   328   229   47.40143   19  259   50.00000   41.43414  17.1%   283   30s
   454   280   43.08797   11  372   50.00000   41.66311  16.7%   289   35s
   535   344   47.45348   29  281   50.00000   41.68545  16.6%   295   40s
   646   407   46.02035   24  345   50.00000   41.85551  16.3%   285   45s
   810   498   44.00486   17  336   50.00000   41.89428  16.2%   275   50s
   949   549   46.82455   18  362   50.00000   41.91571  16.2%   279   56s
  1045   594   46.03545   24  458   50.00000   41.92009  16.2%   291   62s
  1047   595   44.27161   15  476   50.00000   41.92009  16.2%   291   68s
  1048   596   46.55596   18  221   50.00000   43.66448  12.7%   290   70s

Cutting planes:
  Gomory: 2
  Cover: 31
  Implied bound: 6
  MIR: 56
  Flow cover: 141
  Inf proof: 1
  Zero half: 4
  RLT: 7

Explored 1048 nodes (335898 simplex iterations) in 70.48 seconds
Thread count was 8 (of 8 available processors)

Solution count 4: 50 52 58 66 

Optimal solution found (tolerance 1.00e-04)
Best objective 5.000000000000e+01, best bound 5.000000000000e+01, gap 0.0000%
<gurobi.Var p0_0_0 (value 1.0)>
<gurobi.Var p0_0_1 (value 1.0)>
<gurobi.Var p0_0_2 (value 1.0)>
<gurobi.Var p0_0_3 (value 1.0)>
<gurobi.Var p0_1_0 (value 1.0)>
<gurobi.Var p0_2_0 (value 1.0)>
<gurobi.Var p0_2_5 (value 1.0)>
<gurobi.Var p0_2_10 (value 1.0)>
<gurobi.Var p0_2_15 (value 1.0)>
<gurobi.Var p0_3_0 (value 1.0)>
<gurobi.Var p0_3_1 (value 1.0)>
<gurobi.Var p0_3_2 (value 1.0)>
<gurobi.Var p0_3_3 (value 1.0)>
<gurobi.Var p0_3_4 (value 1.0)>
<gurobi.Var p0_3_5 (value 1.0)>
<gurobi.Var p0_3_6 (value 1.0)>
<gurobi.Var p0_3_7 (value 1.0)>
<gurobi.Var p0_3_8 (value 1.0)>
<gurobi.Var p0_3_9 (value 1.0)>
<gurobi.Var p0_3_10 (value 1.0)>
<gurobi.Var p0_3_11 (value 1.0)>
<gurobi.Var p0_3_12 (value 1.0)>
<gurobi.Var p0_3_13 (value 1.0)>
<gurobi.Var p0_3_14 (value 1.0)>
<gurobi.Var p0_3_15 (value 1.0)>
<gurobi.Var x0_0 (value 1.0)>
<gurobi.Var x0_3 (value 1.0)>
<gurobi.Var x0_4 (value 1.0)>
<gurobi.Var x0_8 (value 1.0)>
<gurobi.Var x0_10 (value 1.0)>
<gurobi.Var x0_12 (value 1.0)>
<gurobi.Var x0_15 (value 1.0)>
<gurobi.Var A0_0 (value 1.0)>
<gurobi.Var A0_1 (value 1.0)>
<gurobi.Var A0_2 (value 1.0)>
<gurobi.Var A0_3 (value 1.0)>
<gurobi.Var y0_0 (value 1.0)>
<gurobi.Var y0_1 (value 1.0)>
<gurobi.Var y0_2 (value 1.0)>
<gurobi.Var y0_4 (value 1.0)>
<gurobi.Var y0_6 (value 1.0)>
<gurobi.Var y0_7 (value 1.0)>
<gurobi.Var y0_9 (value 1.0)>
<gurobi.Var y0_11 (value 1.0)>
<gurobi.Var y0_12 (value 1.0)>
<gurobi.Var y0_13 (value 1.0)>
<gurobi.Var y0_14 (value 1.0)>
<gurobi.Var t0_1 (value 1.0)>
<gurobi.Var t0_3 (value 1.0)>
<gurobi.Var x1_1 (value 1.0)>
<gurobi.Var x1_3 (value 1.0)>
<gurobi.Var A1_0 (value 1.0)>
<gurobi.Var y1_0 (value 1.0)>
<gurobi.Var y1_1 (value 1.0)>
<gurobi.Var y1_3 (value 1.0)>
<gurobi.Var t1_0 (value 1.0)>
<gurobi.Var t1_1 (value 1.0)>
<gurobi.Var t1_3 (value 1.0)>
<gurobi.Var t1_5 (value 1.0)>
<gurobi.Var t1_7 (value 1.0)>
<gurobi.Var t1_9 (value 1.0)>
<gurobi.Var t1_11 (value 1.0)>
<gurobi.Var t1_13 (value 1.0)>
<gurobi.Var t1_14 (value 1.0)>
<gurobi.Var t1_15 (value 1.0)>
<gurobi.Var x2_0 (value 1.0)>
<gurobi.Var x2_1 (value 1.0)>
<gurobi.Var x2_3 (value 1.0)>
<gurobi.Var x2_21 (value 1.0)>
<gurobi.Var x2_23 (value 1.0)>
<gurobi.Var x2_41 (value 1.0)>
<gurobi.Var x2_43 (value 1.0)>
<gurobi.Var x2_61 (value 1.0)>
<gurobi.Var x2_62 (value 1.0)>
<gurobi.Var x2_63 (value 1.0)>
<gurobi.Var A2_0 (value 1.0)>
<gurobi.Var A2_5 (value 1.0)>
<gurobi.Var A2_10 (value 1.0)>
<gurobi.Var A2_15 (value 1.0)>
<gurobi.Var y2_0 (value 1.0)>
<gurobi.Var y2_1 (value 1.0)>
<gurobi.Var y2_3 (value 1.0)>
<gurobi.Var y2_20 (value 1.0)>
<gurobi.Var y2_21 (value 1.0)>
<gurobi.Var y2_23 (value 1.0)>
<gurobi.Var y2_40 (value 1.0)>
<gurobi.Var y2_41 (value 1.0)>
<gurobi.Var y2_43 (value 1.0)>
<gurobi.Var y2_60 (value 1.0)>
<gurobi.Var y2_61 (value 1.0)>
<gurobi.Var y2_62 (value 1.0)>
<gurobi.Var t2_0 (value 1.0)>
<gurobi.Var t2_1 (value 1.0)>
<gurobi.Var t2_3 (value 1.0)>
<gurobi.Var t2_5 (value 1.0)>
<gurobi.Var t2_7 (value 1.0)>
<gurobi.Var t2_9 (value 1.0)>
<gurobi.Var t2_11 (value 1.0)>
<gurobi.Var t2_13 (value 1.0)>
<gurobi.Var t2_14 (value 1.0)>
<gurobi.Var t2_15 (value 1.0)>
<gurobi.Var t2_17 (value 1.0)>
<gurobi.Var t2_18 (value 1.0)>
<gurobi.Var t2_19 (value 1.0)>
<gurobi.Var t2_20 (value 1.0)>
<gurobi.Var t2_21 (value 1.0)>
<gurobi.Var t2_22 (value 1.0)>
<gurobi.Var t2_23 (value 1.0)>
<gurobi.Var t2_25 (value 1.0)>
<gurobi.Var t2_27 (value 1.0)>
<gurobi.Var t2_28 (value 1.0)>
<gurobi.Var t2_29 (value 1.0)>
<gurobi.Var t2_31 (value 1.0)>
<gurobi.Var t2_32 (value 1.0)>
<gurobi.Var t2_34 (value 1.0)>
<gurobi.Var t2_37 (value 1.0)>
<gurobi.Var t2_38 (value 1.0)>
<gurobi.Var t2_39 (value 1.0)>
<gurobi.Var t2_40 (value 1.0)>
<gurobi.Var t2_41 (value 1.0)>
<gurobi.Var t2_43 (value 1.0)>
<gurobi.Var t2_44 (value 1.0)>
<gurobi.Var t2_46 (value 1.0)>
<gurobi.Var t2_48 (value 1.0)>
<gurobi.Var t2_49 (value 1.0)>
<gurobi.Var t2_51 (value 1.0)>
<gurobi.Var t2_52 (value 1.0)>
<gurobi.Var t2_53 (value 1.0)>
<gurobi.Var t2_54 (value 1.0)>
<gurobi.Var t2_58 (value 1.0)>
<gurobi.Var t2_59 (value 1.0)>
<gurobi.Var t2_62 (value 1.0)>
<gurobi.Var t2_63 (value 1.0)>
<gurobi.Var x3_0 (value 1.0)>
<gurobi.Var x3_1 (value 1.0)>
<gurobi.Var x3_3 (value 1.0)>
<gurobi.Var x3_4 (value 1.0)>
<gurobi.Var x3_5 (value 1.0)>
<gurobi.Var x3_6 (value 1.0)>
<gurobi.Var x3_8 (value 1.0)>
<gurobi.Var x3_9 (value 1.0)>
<gurobi.Var x3_11 (value 1.0)>
<gurobi.Var x3_12 (value 1.0)>
<gurobi.Var x3_13 (value 1.0)>
<gurobi.Var x3_15 (value 1.0)>
<gurobi.Var x3_17 (value 1.0)>
<gurobi.Var x3_18 (value 1.0)>
<gurobi.Var x3_19 (value 1.0)>
<gurobi.Var x3_21 (value 1.0)>
<gurobi.Var x3_23 (value 1.0)>
<gurobi.Var x3_26 (value 1.0)>
<gurobi.Var x3_27 (value 1.0)>
<gurobi.Var x3_28 (value 1.0)>
<gurobi.Var x3_30 (value 1.0)>
<gurobi.Var x3_32 (value 1.0)>
<gurobi.Var x3_34 (value 1.0)>
<gurobi.Var x3_36 (value 1.0)>
<gurobi.Var x3_37 (value 1.0)>
<gurobi.Var x3_38 (value 1.0)>
<gurobi.Var x3_39 (value 1.0)>
<gurobi.Var x3_41 (value 1.0)>
<gurobi.Var x3_43 (value 1.0)>
<gurobi.Var x3_46 (value 1.0)>
<gurobi.Var x3_47 (value 1.0)>
<gurobi.Var x3_48 (value 1.0)>
<gurobi.Var x3_49 (value 1.0)>
<gurobi.Var x3_51 (value 1.0)>
<gurobi.Var x3_53 (value 1.0)>
<gurobi.Var x3_54 (value 1.0)>
<gurobi.Var x3_55 (value 1.0)>
<gurobi.Var x3_57 (value 1.0)>
<gurobi.Var x3_59 (value 1.0)>
<gurobi.Var x3_61 (value 1.0)>
<gurobi.Var x3_62 (value 1.0)>
<gurobi.Var x3_63 (value 1.0)>
<gurobi.Var A3_0 (value 1.0)>
<gurobi.Var A3_1 (value 1.0)>
<gurobi.Var A3_2 (value 1.0)>
<gurobi.Var A3_3 (value 1.0)>
<gurobi.Var A3_4 (value 1.0)>
<gurobi.Var A3_5 (value 1.0)>
<gurobi.Var A3_6 (value 1.0)>
<gurobi.Var A3_7 (value 1.0)>
<gurobi.Var A3_8 (value 1.0)>
<gurobi.Var A3_9 (value 1.0)>
<gurobi.Var A3_10 (value 1.0)>
<gurobi.Var A3_11 (value 1.0)>
<gurobi.Var A3_12 (value 1.0)>
<gurobi.Var A3_13 (value 1.0)>
<gurobi.Var A3_14 (value 1.0)>
<gurobi.Var A3_15 (value 1.0)>
<gurobi.Var y3_1 (value 1.0)>
<gurobi.Var y3_2 (value 1.0)>
<gurobi.Var y3_5 (value 1.0)>
<gurobi.Var y3_9 (value 1.0)>
<gurobi.Var y3_10 (value 1.0)>
<gurobi.Var y3_12 (value 1.0)>
<gurobi.Var y3_13 (value 1.0)>
<gurobi.Var y3_15 (value 1.0)>
<gurobi.Var y3_16 (value 1.0)>
<gurobi.Var y3_17 (value 1.0)>
<gurobi.Var y3_18 (value 1.0)>
<gurobi.Var y3_20 (value 1.0)>
<gurobi.Var y3_21 (value 1.0)>
<gurobi.Var y3_23 (value 1.0)>
<gurobi.Var y3_27 (value 1.0)>
<gurobi.Var y3_29 (value 1.0)>
<gurobi.Var y3_31 (value 1.0)>
<gurobi.Var y3_32 (value 1.0)>
<gurobi.Var y3_35 (value 1.0)>
<gurobi.Var y3_37 (value 1.0)>
<gurobi.Var y3_38 (value 1.0)>
<gurobi.Var y3_39 (value 1.0)>
<gurobi.Var y3_42 (value 1.0)>
<gurobi.Var y3_44 (value 1.0)>
<gurobi.Var y3_47 (value 1.0)>
<gurobi.Var y3_49 (value 1.0)>
<gurobi.Var y3_50 (value 1.0)>
<gurobi.Var y3_52 (value 1.0)>
<gurobi.Var y3_53 (value 1.0)>
<gurobi.Var y3_54 (value 1.0)>
<gurobi.Var y3_58 (value 1.0)>
<gurobi.Var y3_60 (value 1.0)>
<gurobi.Var y3_61 (value 1.0)>
<gurobi.Var y3_62 (value 1.0)>
python3 model1-4.py  260.09s user 5.20s system 375% cpu 1:10.63 total
